decision_x1=[0,4];
decision_x2=[0,4];
decision_x3=[0,4];
decision_x4=[0,4];
random_y1=[0,4];
random_y2=[0,4];
constraint_x2_x1=[
0,1,7.1|
0,2,6.4|
0,3,3.2|
0,4,2.6|
1,0,1.5|
1,2,8.1|
1,3,3.9|
1,4,2.4|
2,0,1.5|
2,1,8.4|
2,3,8.4|
2,4,8.3|
3,0,7.8|
3,1,1.6|
3,2,3.2|
3,4,4|
4,0,6.9|
4,1,7.4|
4,2,1.9|
4,3,1.8|
];
constraint_x3_x1=[
0,1,8.2|
0,2,7.3|
0,3,2.6|
0,4,5.8|
1,0,5.9|
1,2,4.1|
1,3,8.4|
1,4,3.4|
2,0,3.4|
2,1,5.1|
2,3,6.9|
2,4,3.4|
3,0,8.7|
3,1,1|
3,2,7.3|
3,4,1.9|
4,0,2.3|
4,1,6|
4,2,5|
4,3,0.11|
];
constraint_x4_x1=[
0,1,0.95|
0,2,1.1|
0,3,0.36|
0,4,3.4|
1,0,5.4|
1,2,0.26|
1,3,9.7|
1,4,3.3|
2,0,0.2|
2,1,1.1|
2,3,4.9|
2,4,7.9|
3,0,2.7|
3,1,7.7|
3,2,7.5|
3,4,8.5|
4,0,6.5|
4,1,2.3|
4,2,0.4|
4,3,3|
];
constraint_x1_y1=[
0,0,9.1|
0,1,5.8|
0,2,7.3|
0,3,8.2|
0,4,2.4|
1,0,0.87|
1,1,2.8|
1,2,3.9|
1,3,6.7|
1,4,3.4|
2,0,8.6|
2,1,2.9|
2,2,10|
2,3,7|
2,4,0.52|
3,0,7.3|
3,1,8.7|
3,2,2.6|
3,3,9.6|
3,4,6.6|
4,0,3|
4,1,6.6|
4,2,8.5|
4,3,9.7|
4,4,2.6|
];
constraint_x2_y2=[
0,0,1.6|
0,1,0.077|
0,2,8.5|
0,3,0.16|
0,4,2.3|
1,0,3.1|
1,1,9.1|
1,2,2|
1,3,6.2|
1,4,5.2|
2,0,8.2|
2,1,0.18|
2,2,2.4|
2,3,5.7|
2,4,0.21|
3,0,4.5|
3,1,2.1|
3,2,7.2|
3,3,6.1|
3,4,4.8|
4,0,3.9|
4,1,1.1|
4,2,0.052|
4,3,2.1|
4,4,9.2|
];
initial_distribution_y1=[0.13,0.3,0.056,0.25,0.27];
initial_distribution_y2=[0.13,0.47,0.3,0.052,0.052];
transition_y1=[
0.13,0.39,0.22,0.072,0.19|
0.23,0.089,0.32,0.18,0.18|
0.019,0.27,0.21,0.28,0.23|
0.27,0.24,0.042,0.31,0.14|
0.066,0.23,0.26,0.15,0.3|
];
transition_y2=[
0.27,0.17,0.12,0.11,0.33|
0.26,0.23,0.017,0.21,0.28|
0.085,0.4,0.22,0.088,0.2|
0.26,0.5,0.069,0.033,0.14|
0.049,0.27,0.13,0.31,0.23|
];
